NAME: Random_85_2
ELLAPSED_TIME_(ms): 1750
TOUR_SIZE: 1829
TOUR_SECTION
0
4
70
24
12
66
62
59
61
69
22
33
51
56
60
74
10
63
72
54
79
20
7
82
9
78
57
43
23
46
13
38
53
49
26
73
80
32
2
29
41
65
58
81
18
47
45
27
6
84
48
68
17
31
28
34
35
67
37
39
14
36
50
3
25
42
77
40
76
52
5
55
1
11
30
75
19
15
16
44
64
83
21
8
71
0
EOF
